run_type constr

species_number 2
input_file    10ka2.mol   mono.mol   
concentrations    7.02 92.98
place 1 3
bead_type 2 O
bead_type 4 N

dpd_density 3.0
box_size 22 22 22

steps_1 0
steps_2 100000
steps_3 1000000

timestep 0.04

valency 1 0
valency 2 0

pair_coeff 0 0 25.0
pair_coeff 2 4 26.63
chem_coeff 0 0 0.0 0.0
bond_template 0 0 0.5 40.0

output_freq 10000

sqf 10000000
restart 1000000
end
